\ LP format - for model browsing. Use MPS format to capture full model detail.
Maximize
obj:   x[1] + x[33] + x[98] + x[50] + x[68] + x[6] + x[103] + x[108] + x[107]
   + x[76] + x[130] + x[112] + x[49] + x[82] + x[147] + x[97] + x[137]
   + x[27] + x[124] + x[2] + x[19] + x[61] + x[99] + x[69] + x[58] + x[138]
   + x[139] + x[77] + x[15] + x[48] + x[131] + x[24] + x[122] + x[93]
   + x[31] + x[3] + x[65] + x[37] + x[43] + x[141] + x[83] + x[148] + x[28]
   + x[62] + x[95] + x[4] + x[128] + x[144] + x[134] + x[113] + x[10]
   + x[14] + x[16] + x[81] + x[26] + x[85] + x[55] + x[5] + x[66] + x[70]
   + x[72] + x[106] + x[46] + x[84] + x[149] + x[150] + x[88] + x[32]
   + x[133] + x[8] + x[41] + x[140] + x[44] + x[136] + x[114] + x[21]
   + x[22] + x[23] + x[118] + x[126] + x[127] + x[7] + x[64] + x[18]
   + x[74] + x[146] + x[60] + x[35] + x[40] + x[59] + x[30] + x[9] + x[123]
   + x[17] + x[73] + x[104] + x[29] + x[102] + x[110] + x[56] + x[25]
   + x[92] + x[11] + x[89] + x[121] + x[12] + x[86] + x[13] + x[47] + x[51]
   + x[57] + x[79] + x[94] + x[67] + x[39] + x[109] + x[45] + x[100]
   + x[53] + x[101] + x[78] + x[80] + x[71] + x[75] + x[20] + x[142]
   + x[90] + x[111] + x[116] + x[34] + x[129] + x[38] + x[52] + x[91]
   + x[63] + x[96] + x[132] + x[125] + x[42] + x[143] + x[145] + x[115]
   + x[87] + x[120] + x[117] + x[135] + x[54] + x[36] + x[119] + x[105]
Subject To
 clq1: x[131] + x[59] + x[53] <= 1
 clq2: x[106] + x[114] + x[115] <= 1
 clq3: x[6] + x[19] + x[21] <= 1
 clq4: x[77] + x[26] + x[22] + x[11] <= 1
 clq5: x[98] + x[14] + x[59] <= 1
 clq6: x[84] + x[41] + x[25] + x[53] <= 1
 clq7: x[33] + x[103] + x[115] <= 1
 clq8: x[106] + x[136] + x[123] <= 1
 clq9: x[97] + x[19] + x[24] <= 1
 clq10: x[4] + x[14] + x[81] <= 1
 clq11: x[61] + x[72] + x[42] + x[115] <= 1
 clq12: x[43] + x[74] + x[92] <= 1
 clq13: x[95] + x[59] + x[29] <= 1
 clq14: x[127] + x[94] + x[53] <= 1
 clq15: x[1] + x[103] + x[27] <= 1
 clq16: x[68] + x[112] + x[109] + x[20] <= 1
 clq17: x[49] + x[137] + x[69] <= 1
 clq18: x[106] + x[140] + x[80] <= 1
 clq19: x[37] + x[136] + x[111] <= 1
 clq20: x[41] + x[21] <= 1
 clq21: x[69] + x[22] + x[30] <= 1
 clq22: x[140] + x[118] + x[17] <= 1
 clq23: x[18] + x[29] + x[102] <= 1
 clq24: x[97] + x[94] <= 1
 clq25: x[2] + x[77] + x[122] <= 1
 clq26: x[19] + x[5] + x[66] <= 1
 clq27: x[138] + x[48] + x[21] <= 1
 clq28: x[103] + x[31] + x[73] <= 1
 clq29: x[50] + x[81] + x[119] <= 1
 clq30: x[5] + x[106] + x[46] <= 1
 clq31: x[6] + x[84] + x[140] <= 1
 clq32: x[64] + x[74] + x[73] <= 1
 clq33: x[59] + x[117] <= 1
 clq34: x[14] + x[39] + x[100] <= 1
 clq35: x[1] + x[33] + x[82] <= 1
 clq36: x[107] + x[41] + x[115] <= 1
 clq37: x[49] + x[18] + x[86] <= 1
 clq38: x[97] + x[62] + x[88] <= 1
 clq39: x[137] + x[37] + x[64] <= 1
 clq40: x[134] + x[92] + x[94] <= 1
 clq41: x[16] + x[136] + x[17] <= 1
 clq42: x[26] + x[118] + x[146] <= 1
 clq43: x[55] + x[74] <= 1
 clq44: x[95] + x[72] + x[56] <= 1
 clq45: x[114] + x[104] <= 1
 clq46: x[22] + x[71] <= 1
 clq47: x[66] + x[59] + x[110] <= 1
 clq48: x[77] + x[93] + x[53] <= 1
 clq49: x[1] + x[98] + x[108] <= 1
 clq50: x[112] + x[38] <= 1
 clq51: x[124] + x[43] + x[59] <= 1
 clq52: x[2] + x[15] + x[131] <= 1
 clq53: x[19] + x[104] <= 1
 clq54: x[48] + x[144] + x[102] <= 1
 clq55: x[107] + x[122] + x[13] <= 1
 clq56: x[31] + x[113] + x[29] <= 1
 clq57: x[83] + x[74] + x[100] <= 1
 clq58: x[69] + x[81] + x[26] <= 1
 clq59: x[55] + x[46] + x[110] <= 1
 clq60: x[147] + x[84] + x[21] <= 1
 clq61: x[134] + x[150] + x[135] <= 1
 clq62: x[114] + x[117] <= 1
 clq63: x[6] + x[22] <= 1
 clq64: x[137] + x[79] + x[101] <= 1
 clq65: x[18] + x[57] + x[20] <= 1
 clq66: x[38] + x[42] <= 1
 clq67: x[33] + x[95] + x[136] <= 1
 clq68: x[50] + x[109] <= 1
 clq69: x[103] + x[150] + x[104] <= 1
 clq70: x[112] + x[126] <= 1
 clq71: x[98] + x[49] + x[4] <= 1
 clq72: x[97] + x[71] + x[52] + x[117] <= 1
 clq73: x[19] + x[72] + x[38] <= 1
 clq74: x[24] + x[22] <= 1
 clq75: x[141] + x[44] + x[101] <= 1
 clq76: x[62] + x[14] <= 1
 clq77: x[16] + x[53] <= 1
 clq78: x[68] + x[106] + x[102] <= 1
 clq79: x[88] + x[75] <= 1
 clq80: x[6] + x[41] + x[44] <= 1
 clq81: x[114] + x[64] + x[96] <= 1
 clq82: x[32] + x[23] + x[100] <= 1
 clq83: x[118] + x[109] + x[42] <= 1
 clq84: x[15] + x[56] <= 1
 clq85: x[66] + x[94] + x[119] <= 1
 clq86: x[50] + x[35] + x[17] <= 1
 clq87: x[108] + x[16] + x[13] <= 1
 clq88: x[1] + x[76] + x[130] <= 1
 clq89: x[112] + x[70] <= 1
 clq90: x[124] + x[46] <= 1
 clq91: x[49] + x[2] + x[48] <= 1
 clq92: x[61] + x[143] + x[105] <= 1
 clq93: x[107] + x[58] + x[84] <= 1
 clq94: x[77] + x[46] + x[75] <= 1
 clq95: x[24] + x[45] <= 1
 clq96: x[122] + x[25] <= 1
 clq97: x[31] + x[14] + x[47] <= 1
 clq98: x[37] + x[9] + x[104] <= 1
 clq99: x[43] + x[21] <= 1
 clq100: x[93] + x[83] + x[144] <= 1
 clq101: x[62] + x[7] + x[74] <= 1
 clq102: x[113] + x[22] <= 1
 clq103: x[81] + x[123] + x[53] <= 1
 clq104: x[4] + x[128] + x[55] <= 1
 clq105: x[88] + x[39] + x[20] <= 1
 clq106: x[10] + x[133] + x[126] <= 1
 clq107: x[14] + x[127] + x[73] <= 1
 clq108: x[98] + x[30] + x[142] <= 1
 clq109: x[56] + x[121] + x[20] <= 1
 clq110: x[43] + x[89] <= 1
 clq111: x[59] + x[86] <= 1
 clq112: x[65] + x[51] <= 1
 clq113: x[122] + x[140] + x[91] <= 1
 clq114: x[33] + x[70] <= 1
 clq115: x[103] + x[56] + x[100] <= 1
 clq116: x[112] + x[95] + x[45] <= 1
 clq117: x[147] + x[5] + x[72] <= 1
 clq118: x[137] + x[113] <= 1
 clq119: x[27] + x[69] + x[104] <= 1
 clq120: x[124] + x[58] + x[41] <= 1
 clq121: x[33] + x[19] + x[141] <= 1
 clq122: x[15] + x[86] <= 1
 clq123: x[131] + x[42] <= 1
 clq124: x[2] + x[24] + x[31] <= 1
 clq125: x[3] + x[65] + x[37] <= 1
 clq126: x[134] + x[7] + x[18] <= 1
 clq127: x[130] + x[26] <= 1
 clq128: x[106] + x[21] + x[142] <= 1
 clq129: x[6] + x[136] + x[23] <= 1
 clq130: x[122] + x[114] + x[132] <= 1
 clq131: x[22] + x[115] <= 1
 clq132: x[118] + x[86] + x[101] <= 1
 clq133: x[29] + x[135] <= 1
 clq134: x[49] + x[25] + x[63] <= 1
 clq135: x[89] + x[94] <= 1
 clq136: x[48] + x[51] + x[96] <= 1
 clq137: x[50] + x[78] + x[38] <= 1
 clq138: x[68] + x[150] + x[9] <= 1
 clq139: x[108] + x[77] <= 1
 clq140: x[76] + x[81] + x[79] <= 1
 clq141: x[97] + x[105] <= 1
 clq142: x[137] + x[80] <= 1
 clq143: x[61] + x[113] <= 1
 clq144: x[138] + x[14] + x[109] <= 1
 clq145: x[15] + x[5] + x[70] <= 1
 clq146: x[131] + x[66] <= 1
 clq147: x[43] + x[71] <= 1
 clq148: x[83] + x[135] <= 1
 clq149: x[62] + x[29] <= 1
 clq150: x[144] + x[35] <= 1
 clq151: x[16] + x[22] <= 1
 clq152: x[26] + x[90] + x[117] <= 1
 clq153: x[48] + x[55] + x[13] <= 1
 clq154: x[84] + x[123] + x[71] <= 1
 clq155: x[43] + x[88] + x[114] <= 1
 clq156: x[126] + x[59] + x[39] <= 1
 clq157: x[76] + x[127] + x[74] <= 1
 clq158: x[64] + x[91] <= 1
 clq159: x[99] + x[146] <= 1
 clq160: x[30] + x[42] <= 1
 clq161: x[17] + x[75] <= 1
 clq162: x[131] + x[102] <= 1
 clq163: x[149] + x[89] + x[115] <= 1
 clq164: x[69] + x[121] <= 1
 clq165: x[94] + x[91] + x[54] <= 1
 clq166: x[53] + x[115] + x[135] <= 1
 clq167: x[77] + x[116] <= 1
 clq168: x[75] + x[119] <= 1
 clq169: x[1] + x[97] <= 1
 clq170: x[103] + x[102] <= 1
 clq171: x[108] + x[83] + x[136] <= 1
 clq172: x[107] + x[113] <= 1
 clq173: x[130] + x[9] + x[73] <= 1
 clq174: x[112] + x[66] <= 1
 clq175: x[147] + x[111] <= 1
 clq176: x[137] + x[27] + x[110] <= 1
 clq177: x[124] + x[65] + x[22] <= 1
 clq178: x[19] + x[146] <= 1
 clq179: x[61] + x[3] <= 1
 clq180: x[24] + x[80] <= 1
 clq181: x[93] + x[46] <= 1
 clq182: x[141] + x[140] <= 1
 clq183: x[3] + x[148] <= 1
 clq184: x[62] + x[10] <= 1
 clq185: x[4] + x[144] + x[134] <= 1
 clq186: x[16] + x[72] + x[80] <= 1
 clq187: x[106] + x[67] + x[78] <= 1
 clq188: x[8] + x[30] <= 1
 clq189: x[41] + x[121] <= 1
 clq190: x[44] + x[42] <= 1
 clq191: x[37] + x[21] <= 1
 clq192: x[72] + x[23] + x[120] <= 1
 clq193: x[33] + x[118] <= 1
 clq194: x[64] + x[125] <= 1
 clq195: x[99] + x[18] + x[116] <= 1
 clq196: x[60] + x[51] <= 1
 clq197: x[14] + x[17] + x[45] <= 1
 clq198: x[97] + x[41] + x[29] <= 1
 clq199: x[25] + x[57] <= 1
 clq200: x[113] + x[63] <= 1
 clq201: x[20] + x[96] + x[132] <= 1
 clq202: x[103] + x[58] + x[87] <= 1
 clq203: x[90] + x[119] <= 1
 clq204: x[98] + x[105] <= 1
 clq205: x[1] + x[68] + x[124] <= 1
 clq206: x[50] + x[69] <= 1
 clq207: x[6] + x[70] <= 1
 clq208: x[107] + x[51] <= 1
 clq209: x[112] + x[21] <= 1
 clq210: x[82] + x[101] + x[75] <= 1
 clq211: x[147] + x[138] + x[94] <= 1
 clq212: x[2] + x[139] <= 1
 clq213: x[19] + x[142] <= 1
 clq214: x[61] + x[38] <= 1
 clq215: x[77] + x[66] + x[140] <= 1
 clq216: x[15] + x[128] + x[39] <= 1
 clq217: x[131] + x[35] <= 1
 clq218: x[24] + x[66] + x[84] <= 1
 clq219: x[93] + x[118] <= 1
 clq220: x[31] + x[12] <= 1
 clq221: x[141] + x[111] <= 1
 clq222: x[148] + x[46] <= 1
 clq223: x[62] + x[44] <= 1
 clq224: x[50] + x[95] + x[25] <= 1
 clq225: x[10] + x[102] <= 1
 clq226: x[81] + x[105] <= 1
 clq227: x[26] + x[86] <= 1
 clq228: x[85] + x[121] <= 1
 clq229: x[55] + x[36] <= 1
 clq230: x[150] + x[34] <= 1
 clq231: x[88] + x[7] <= 1
 clq232: x[137] + x[32] + x[146] <= 1
 clq233: x[8] + x[59] <= 1
 clq234: x[126] + x[100] <= 1
 clq235: x[127] + x[100] <= 1
 clq236: x[64] + x[123] <= 1
 clq237: x[60] + x[119] <= 1
 clq238: x[30] + x[109] <= 1
 clq239: x[144] + x[56] + x[125] <= 1
 clq240: x[130] + x[89] + x[34] <= 1
 clq241: x[30] + x[13] + x[57] <= 1
 clq242: x[53] + x[129] <= 1
 clq243: x[63] + x[117] <= 1
 clq244: x[123] + x[42] + x[36] <= 1
 clq245: x[33] + x[2] + x[99] <= 1
 clq246: x[98] + x[131] <= 1
 clq247: x[6] + x[8] <= 1
 clq248: x[108] + x[112] + x[119] <= 1
 clq249: x[107] + x[43] + x[26] <= 1
 clq250: x[49] + x[95] + x[5] <= 1
 clq251: x[27] + x[12] + x[86] <= 1
 clq252: x[19] + x[71] + x[116] <= 1
 clq253: x[61] + x[40] <= 1
 clq254: x[69] + x[106] <= 1
 clq255: x[139] + x[45] <= 1
 clq256: x[122] + x[3] <= 1
 clq257: x[93] + x[74] <= 1
 clq258: x[61] + x[31] + x[118] <= 1
 clq259: x[37] + x[4] <= 1
 clq260: x[141] + x[113] <= 1
 clq261: x[83] + x[104] <= 1
 clq262: x[148] + x[73] <= 1
 clq263: x[37] + x[62] + x[38] <= 1
 clq264: x[134] + x[10] <= 1
 clq265: x[16] + x[44] <= 1
 clq266: x[81] + x[60] <= 1
 clq267: x[85] + x[22] <= 1
 clq268: x[55] + x[70] <= 1
 clq269: x[46] + x[91] <= 1
 clq270: x[77] + x[70] + x[150] <= 1
 clq271: x[88] + x[63] <= 1
 clq272: x[136] + x[7] <= 1
 clq273: x[114] + x[53] <= 1
 clq274: x[21] + x[143] <= 1
 clq275: x[23] + x[87] <= 1
 clq276: x[126] + x[79] + x[53] <= 1
 clq277: x[127] + x[18] <= 1
 clq278: x[64] + x[135] <= 1
 clq279: x[35] + x[73] + x[142] <= 1
 clq280: x[59] + x[13] + x[51] <= 1
 clq281: x[93] + x[17] + x[90] <= 1
 clq282: x[29] + x[100] <= 1
 clq283: x[102] + x[117] <= 1
 clq284: x[10] + x[104] + x[110] <= 1
 clq285: x[122] + x[121] + x[105] <= 1
 clq286: x[97] + x[109] <= 1
 clq287: x[22] + x[39] + x[111] <= 1
 clq288: x[75] + x[96] <= 1
 clq289: x[98] + x[120] <= 1
 clq290: x[148] + x[54] <= 1
 clq291: x[1] + x[6] <= 1
 clq292: x[68] + x[132] <= 1
 clq293: x[103] + x[76] + x[140] <= 1
 clq294: x[82] + x[129] <= 1
 clq295: x[147] + x[81] <= 1
 clq296: x[69] + x[40] <= 1
 clq297: x[58] + x[4] + x[85] <= 1
 clq298: x[138] + x[65] + x[25] <= 1
 clq299: x[139] + x[106] <= 1
 clq300: x[98] + x[15] <= 1
 clq301: x[48] + x[141] <= 1
 clq302: x[131] + x[145] <= 1
 clq303: x[24] + x[53] + x[120] <= 1
 clq304: x[3] + x[83] <= 1
 clq305: x[134] + x[101] <= 1
 clq306: x[113] + x[21] + x[42] <= 1
 clq307: x[16] + x[29] <= 1
 clq308: x[55] + x[8] <= 1
 clq309: x[46] + x[89] <= 1
 clq310: x[84] + x[135] <= 1
 clq311: x[88] + x[129] <= 1
 clq312: x[32] + x[41] <= 1
 clq313: x[44] + x[59] + x[9] <= 1
 clq314: x[136] + x[117] <= 1
 clq315: x[114] + x[7] <= 1
 clq316: x[23] + x[67] <= 1
 clq317: x[127] + x[80] <= 1
 clq318: x[64] + x[38] <= 1
 clq319: x[50] + x[18] + x[67] <= 1
 clq320: x[74] + x[102] + x[51] <= 1
 clq321: x[146] + x[109] <= 1
 clq322: x[60] + x[57] + x[38] <= 1
 clq323: x[56] + x[115] <= 1
 clq324: x[94] + x[96] <= 1
 clq325: x[35] + x[45] <= 1
 clq326: x[62] + x[20] + x[125] <= 1
 clq327: x[19] + x[91] + x[63] <= 1
 clq328: x[130] + x[143] <= 1
 clq329: x[134] + x[87] <= 1
 clq330: x[100] + x[54] <= 1
 clq331: x[1] + x[137] <= 1
 clq332: x[33] + x[135] <= 1
 clq333: x[68] + x[101] <= 1
 clq334: x[6] + x[133] + x[118] <= 1
 clq335: x[108] + x[121] <= 1
 clq336: x[107] + x[143] <= 1
 clq337: x[112] + x[132] <= 1
 clq338: x[49] + x[110] + x[42] <= 1
 clq339: x[82] + x[69] + x[83] <= 1
 clq340: x[147] + x[88] <= 1
 clq341: x[97] + x[34] <= 1
 clq342: x[27] + x[8] <= 1
 clq343: x[137] + x[124] + x[150] <= 1
 clq344: x[2] + x[138] <= 1
 clq345: x[139] + x[145] <= 1
 clq346: x[15] + x[43] <= 1
 clq347: x[103] + x[48] + x[12] <= 1
 clq348: x[131] + x[17] + x[20] <= 1
 clq349: x[31] + x[106] <= 1
 clq350: x[3] + x[141] <= 1
 clq351: x[148] + x[81] <= 1
 clq352: x[28] + x[90] <= 1
 clq353: x[144] + x[46] <= 1
 clq354: x[16] + x[78] <= 1
 clq355: x[26] + x[46] + x[79] <= 1
 clq356: x[55] + x[5] <= 1
 clq357: x[72] + x[84] <= 1
 clq358: x[149] + x[71] + x[63] <= 1
 clq359: x[6] + x[32] + x[127] <= 1
 clq360: x[41] + x[7] <= 1
 clq361: x[136] + x[142] <= 1
 clq362: x[114] + x[73] <= 1
 clq363: x[23] + x[101] <= 1
 clq364: x[126] + x[87] <= 1
 clq365: x[64] + x[129] <= 1
 clq366: x[37] + x[146] <= 1
 clq367: x[40] + x[75] <= 1
 clq368: x[30] + x[45] <= 1
 clq369: x[123] + x[105] <= 1
 clq370: x[136] + x[29] <= 1
 clq371: x[56] + x[47] <= 1
 clq372: x[89] + x[80] <= 1
 clq373: x[86] + x[109] <= 1
 clq374: x[94] + x[132] <= 1
 clq375: x[70] + x[111] <= 1
 clq376: x[116] + x[54] <= 1
 clq377: x[68] + x[52] <= 1
 clq378: x[72] + x[96] <= 1
 clq379: x[141] + x[115] <= 1
 clq380: x[98] + x[117] <= 1
 clq381: x[102] + x[36] <= 1
 clq382: x[135] + x[119] <= 1
 clq383: x[1] + x[107] <= 1
 clq384: x[33] + x[41] <= 1
 clq385: x[108] + x[100] <= 1
 clq386: x[76] + x[36] <= 1
 clq387: x[130] + x[54] <= 1
 clq388: x[112] + x[115] <= 1
 clq389: x[147] + x[122] <= 1
 clq390: x[97] + x[58] <= 1
 clq391: x[27] + x[109] <= 1
 clq392: x[2] + x[93] <= 1
 clq393: x[61] + x[119] <= 1
 clq394: x[99] + x[117] <= 1
 clq395: x[139] + x[66] + x[120] <= 1
 clq396: x[77] + x[4] <= 1
 clq397: x[15] + x[13] <= 1
 clq398: x[24] + x[104] <= 1
 clq399: x[31] + x[144] <= 1
 clq400: x[3] + x[43] <= 1
 clq401: x[65] + x[8] + x[40] <= 1
 clq402: x[148] + x[88] <= 1
 clq403: x[3] + x[28] <= 1
 clq404: x[95] + x[22] <= 1
 clq405: x[128] + x[94] <= 1
 clq406: x[134] + x[74] <= 1
 clq407: x[113] + x[84] <= 1
 clq408: x[10] + x[106] <= 1
 clq409: x[14] + x[21] <= 1
 clq410: x[16] + x[25] <= 1
 clq411: x[81] + x[45] <= 1
 clq412: x[85] + x[44] <= 1
 clq413: x[55] + x[23] <= 1
 clq414: x[83] + x[5] <= 1
 clq415: x[140] + x[7] <= 1
 clq416: x[114] + x[121] + x[57] <= 1
 clq417: x[126] + x[18] <= 1
 clq418: x[98] + x[64] <= 1
 clq419: x[7] + x[146] <= 1
 clq420: x[60] + x[9] <= 1
 clq421: x[35] + x[75] <= 1
 clq422: x[30] + x[78] <= 1
 clq423: x[123] + x[47] <= 1
 clq424: x[29] + x[143] <= 1
 clq425: x[99] + x[56] <= 1
 clq426: x[72] + x[92] <= 1
 clq427: x[11] + x[89] <= 1
 clq428: x[86] + x[52] <= 1
 clq429: x[39] + x[87] <= 1
 clq430: x[80] + x[142] <= 1
 clq431: x[90] + x[105] <= 1
 clq432: x[41] + x[111] <= 1
 clq433: x[116] + x[96] <= 1
 clq434: x[107] + x[133] + x[91] <= 1
 clq435: x[33] + x[125] <= 1
 clq436: x[129] + x[145] <= 1
 clq437: x[1] + x[49] <= 1
 clq438: x[50] + x[126] <= 1
 clq439: x[68] + x[18] <= 1
 clq440: x[108] + x[113] <= 1
 clq441: x[76] + x[44] + x[146] <= 1
 clq442: x[130] + x[135] <= 1
 clq443: x[112] + x[85] <= 1
 clq444: x[82] + x[25] <= 1
 clq445: x[147] + x[73] <= 1
 clq446: x[97] + x[125] <= 1
 clq447: x[27] + x[94] <= 1
 clq448: x[124] + x[95] <= 1
 clq449: x[2] + x[58] <= 1
 clq450: x[19] + x[52] <= 1
 clq451: x[61] + x[92] <= 1
 clq452: x[69] + x[116] <= 1
 clq453: x[138] + x[84] <= 1
 clq454: x[77] + x[105] <= 1
 clq455: x[15] + x[123] <= 1
 clq456: x[48] + x[89] <= 1
 clq457: x[131] + x[43] <= 1
 clq458: x[24] + x[148] <= 1
 clq459: x[122] + x[119] <= 1
 clq460: x[93] + x[54] <= 1
 clq461: x[31] + x[60] <= 1
 clq462: x[37] + x[81] <= 1
 clq463: x[141] + x[74] <= 1
 clq464: x[28] + x[59] <= 1
 clq465: x[62] + x[118] <= 1
 clq466: x[4] + x[10] <= 1
 clq467: x[49] + x[128] <= 1
 clq468: x[144] + x[100] <= 1
 clq469: x[134] + x[140] <= 1
 clq470: x[14] + x[67] <= 1
 clq471: x[4] + x[16] + x[26] <= 1
 clq472: x[55] + x[117] <= 1
 clq473: x[5] + x[149] + x[150] <= 1
 clq474: x[70] + x[80] <= 1
 clq475: x[106] + x[13] <= 1
 clq476: x[88] + x[36] <= 1
 clq477: x[32] + x[143] <= 1
 clq478: x[136] + x[57] <= 1
 clq479: x[21] + x[145] <= 1
 clq480: x[22] + x[142] <= 1
 clq481: x[23] + x[71] <= 1
 clq482: x[127] + x[104] <= 1
 clq483: x[113] + x[64] <= 1
 clq484: x[35] + x[47] <= 1
 clq485: x[30] + x[56] <= 1
 clq486: x[9] + x[17] <= 1
 clq487: x[9] + x[29] <= 1
 clq488: x[102] + x[143] <= 1
 clq489: x[110] + x[145] <= 1
 clq490: x[65] + x[12] <= 1
 clq491: x[86] + x[34] <= 1
 clq492: x[51] + x[115] <= 1
 clq493: x[41] + x[79] <= 1
 clq494: x[106] + x[39] <= 1
 clq495: x[51] + x[109] <= 1
 clq496: x[45] + x[111] <= 1
 clq497: x[101] + x[117] <= 1
 clq498: x[78] + x[96] <= 1
 clq499: x[67] + x[75] <= 1
 clq500: x[33] + x[90] <= 1
 clq501: x[81] + x[132] <= 1
 clq502: x[137] + x[87] <= 1
 clq503: x[1] + x[50] <= 1
 clq504: x[98] + x[31] <= 1
 clq505: x[68] + x[122] <= 1
 clq506: x[103] + x[46] <= 1
 clq507: x[108] + x[27] <= 1
 clq508: x[130] + x[11] <= 1
 clq509: x[112] + x[127] <= 1
 clq510: x[82] + x[21] <= 1
 clq511: x[147] + x[29] <= 1
 clq512: x[97] + x[83] <= 1
 clq513: x[124] + x[70] <= 1
 clq514: x[2] + x[19] <= 1
 clq515: x[61] + x[53] <= 1
 clq516: x[99] + x[12] <= 1
 clq517: x[69] + x[36] <= 1
 clq518: x[58] + x[90] <= 1
 clq519: x[138] + x[18] <= 1
 clq520: x[139] + x[116] <= 1
 clq521: x[77] + x[115] <= 1
 clq522: x[15] + x[25] <= 1
 clq523: x[48] + x[114] <= 1
 clq524: x[131] + x[132] <= 1
 clq525: x[24] + x[86] <= 1
 clq526: x[93] + x[3] <= 1
 clq527: x[37] + x[100] <= 1
 clq528: x[43] + x[129] <= 1
 clq529: x[141] + x[26] <= 1
 clq530: x[148] + x[20] <= 1
 clq531: x[107] + x[28] <= 1
 clq532: x[3] + x[62] <= 1
 clq533: x[95] + x[91] <= 1
 clq534: x[128] + x[8] <= 1
 clq535: x[144] + x[101] <= 1
 clq536: x[134] + x[121] <= 1
 clq537: x[10] + x[92] <= 1
 clq538: x[14] + x[89] <= 1
 clq539: x[85] + x[45] <= 1
 clq540: x[55] + x[79] <= 1
 clq541: x[66] + x[74] <= 1
 clq542: x[72] + x[73] <= 1
 clq543: x[84] + x[60] <= 1
 clq544: x[88] + x[123] <= 1
 clq545: x[139] + x[32] <= 1
 clq546: x[140] + x[22] <= 1
 clq547: x[136] + x[42] <= 1
 clq548: x[23] + x[63] <= 1
 clq549: x[118] + x[110] <= 1
 clq550: x[113] + x[126] <= 1
 clq551: x[7] + x[64] <= 1
 clq552: x[35] + x[54] <= 1
 clq553: x[40] + x[109] <= 1
 clq554: x[59] + x[119] <= 1
 clq555: x[30] + x[104] <= 1
 clq556: x[17] + x[142] <= 1
 clq557: x[102] + x[125] <= 1
 clq558: x[10] + x[56] <= 1
 clq559: x[13] + x[94] <= 1
 clq560: x[65] + x[47] <= 1
 clq561: x[131] + x[39] <= 1
 clq562: x[78] + x[34] <= 1
 clq563: x[58] + x[80] <= 1
 clq564: x[17] + x[71] <= 1
 clq565: x[41] + x[75] <= 1
 clq566: x[18] + x[111] <= 1
 clq567: x[33] + x[38] <= 1
 clq568: x[21] + x[52] <= 1
 clq569: x[124] + x[96] <= 1
 clq570: x[130] + x[87] <= 1
 clq571: x[76] + x[120] <= 1
 clq572: x[135] + x[105] <= 1
 clq573: x[1] + x[147] <= 1
 clq574: x[98] + x[95] <= 1
 clq575: x[50] + x[94] <= 1
 clq576: x[68] + x[100] <= 1
 clq577: x[6] + x[114] <= 1
 clq578: x[103] + x[149] <= 1
 clq579: x[108] + x[28] <= 1
 clq580: x[112] + x[128] <= 1
 clq581: x[49] + x[89] <= 1
 clq582: x[82] + x[146] <= 1
 clq583: x[97] + x[37] <= 1
 clq584: x[137] + x[145] <= 1
 clq585: x[27] + x[62] <= 1
 clq586: x[2] + x[61] <= 1
 clq587: x[19] + x[129] <= 1
 clq588: x[99] + x[11] <= 1
 clq589: x[69] + x[148] <= 1
 clq590: x[138] + x[106] <= 1
 clq591: x[77] + x[20] <= 1
 clq592: x[15] + x[53] <= 1
 clq593: x[48] + x[56] <= 1
 clq594: x[24] + x[116] <= 1
 clq595: x[122] + x[71] <= 1
 clq596: x[131] + x[93] <= 1
 clq597: x[68] + x[31] <= 1
 clq598: x[43] + x[91] <= 1
 clq599: x[141] + x[67] <= 1
 clq600: x[83] + x[42] <= 1
 clq601: x[144] + x[111] <= 1
 clq602: x[134] + x[14] <= 1
 clq603: x[16] + x[92] <= 1
 clq604: x[81] + x[115] <= 1
 clq605: x[85] + x[29] <= 1
 clq606: x[55] + x[25] <= 1
 clq607: x[5] + x[84] <= 1
 clq608: x[66] + x[57] <= 1
 clq609: x[70] + x[105] <= 1
 clq610: x[72] + x[32] <= 1
 clq611: x[46] + x[123] <= 1
 clq612: x[66] + x[150] <= 1
 clq613: x[27] + x[88] <= 1
 clq614: x[133] + x[78] <= 1
 clq615: x[8] + x[35] <= 1
 clq616: x[140] + x[90] <= 1
 clq617: x[44] + x[80] <= 1
 clq618: x[130] + x[136] <= 1
 clq619: x[22] + x[73] <= 1
 clq620: x[124] + x[23] <= 1
 clq621: x[118] + x[36] <= 1
 clq622: x[126] + x[12] <= 1
 clq623: x[127] + x[59] <= 1
 clq624: x[7] + x[60] <= 1
 clq625: x[139] + x[64] <= 1
 clq626: x[74] + x[142] <= 1
 clq627: x[40] + x[9] <= 1
 clq628: x[30] + x[121] <= 1
 clq629: x[104] + x[119] <= 1
 clq630: x[102] + x[120] <= 1
 clq631: x[60] + x[110] <= 1
 clq632: x[81] + x[86] <= 1
 clq633: x[13] + x[79] <= 1
 clq634: x[47] + x[132] <= 1
 clq635: x[137] + x[51] <= 1
 clq636: x[39] + x[125] <= 1
 clq637: x[109] + x[143] <= 1
 clq638: x[45] + x[117] <= 1
 clq639: x[101] + x[135] <= 1
 clq640: x[75] + x[117] <= 1
 clq641: x[19] + x[34] <= 1
 clq642: x[97] + x[38] <= 1
 clq643: x[53] + x[52] <= 1
 clq644: x[74] + x[63] <= 1
 clq645: x[108] + x[96] <= 1
 clq646: x[42] + x[87] <= 1
 clq647: x[54] + x[105] <= 1
 clq648: x[1] + x[112] <= 1
 clq649: x[33] + x[30] <= 1
 clq650: x[98] + x[26] <= 1
 clq651: x[50] + x[55] <= 1
 clq652: x[6] + x[126] <= 1
 clq653: x[103] + x[32] <= 1
 clq654: x[107] + x[62] <= 1
 clq655: x[76] + x[23] <= 1
 clq656: x[49] + x[148] <= 1
 clq657: x[82] + x[45] <= 1
 clq658: x[147] + x[118] <= 1
 clq659: x[2] + x[69] <= 1
 clq660: x[61] + x[87] <= 1
 clq661: x[99] + x[24] <= 1
 clq662: x[58] + x[146] <= 1
 clq663: x[138] + x[12] <= 1
 clq664: x[77] + x[29] <= 1
 clq665: x[15] + x[110] <= 1
 clq666: x[48] + x[28] <= 1
 clq667: x[122] + x[72] <= 1
 clq668: x[93] + x[56] <= 1
 clq669: x[31] + x[128] <= 1
 clq670: x[3] + x[95] <= 1
 clq671: x[65] + x[91] <= 1
 clq672: x[37] + x[134] <= 1
 clq673: x[43] + x[136] <= 1
 clq674: x[141] + x[116] <= 1
 clq675: x[83] + x[111] <= 1
 clq676: x[4] + x[113] <= 1
 clq677: x[144] + x[114] <= 1
 clq678: x[10] + x[25] <= 1
 clq679: x[14] + x[85] <= 1
 clq680: x[16] + x[101] <= 1
 clq681: x[5] + x[88] <= 1
 clq682: x[70] + x[20] <= 1
 clq683: x[106] + x[73] <= 1
 clq684: x[46] + x[142] <= 1
 clq685: x[84] + x[90] <= 1
 clq686: x[149] + x[92] <= 1
 clq687: x[150] + x[115] <= 1
 clq688: x[133] + x[41] <= 1
 clq689: x[8] + x[7] <= 1
 clq690: x[140] + x[51] <= 1
 clq691: x[44] + x[64] <= 1
 clq692: x[21] + x[104] <= 1
 clq693: x[22] + x[129] <= 1
 clq694: x[127] + x[96] <= 1
 clq695: x[18] + x[35] <= 1
 clq696: x[40] + x[89] <= 1
 clq697: x[59] + x[67] <= 1
 clq698: x[9] + x[123] <= 1
 clq699: x[17] + x[86] <= 1
 clq700: x[102] + x[71] <= 1
 clq701: x[11] + x[121] <= 1
 clq702: x[13] + x[47] <= 1
 clq703: x[57] + x[78] <= 1
 clq704: x[79] + x[52] <= 1
 clq705: x[94] + x[39] <= 1
 clq706: x[109] + x[135] <= 1
 clq707: x[100] + x[34] <= 1
 clq708: x[80] + x[119] <= 1
 clq709: x[75] + x[143] <= 1
 clq710: x[38] + x[145] <= 1
 clq711: x[63] + x[125] <= 1
 clq712: x[132] + x[120] <= 1
 clq713: x[54] + x[36] <= 1
Bounds
Binaries
 x[1] x[33] x[98] x[50] x[68] x[6] x[103] x[108] x[107] x[76] x[130] x[112]
 x[49] x[82] x[147] x[97] x[137] x[27] x[124] x[2] x[19] x[61] x[99] x[69]
 x[58] x[138] x[139] x[77] x[15] x[48] x[131] x[24] x[122] x[93] x[31] x[3]
 x[65] x[37] x[43] x[141] x[83] x[148] x[28] x[62] x[95] x[4] x[128] x[144]
 x[134] x[113] x[10] x[14] x[16] x[81] x[26] x[85] x[55] x[5] x[66] x[70]
 x[72] x[106] x[46] x[84] x[149] x[150] x[88] x[32] x[133] x[8] x[41]
 x[140] x[44] x[136] x[114] x[21] x[22] x[23] x[118] x[126] x[127] x[7]
 x[64] x[18] x[74] x[146] x[60] x[35] x[40] x[59] x[30] x[9] x[123] x[17]
 x[73] x[104] x[29] x[102] x[110] x[56] x[25] x[92] x[11] x[89] x[121]
 x[12] x[86] x[13] x[47] x[51] x[57] x[79] x[94] x[67] x[39] x[109] x[45]
 x[100] x[53] x[101] x[78] x[80] x[71] x[75] x[20] x[142] x[90] x[111]
 x[116] x[34] x[129] x[38] x[52] x[91] x[63] x[96] x[132] x[125] x[42]
 x[143] x[145] x[115] x[87] x[120] x[117] x[135] x[54] x[36] x[119] x[105]
End
